NAME: bip_20_9
TYPE: TSP
COMMENT: bip_20_9
DIMENSION: 20
EDGE_WEIGHT_TYPE: EUC_2D
NODE_COORD_SECTION
1 73 30
2 27 53
3 32 63
4 83 12
5 46 53
6 13 24
7 67 86
8 85 42
9 72 81
10 29 51
11 466 463
12 434 487
13 412 488
14 472 406
15 477 461
16 416 422
17 454 483
18 459 424
19 455 422
20 400 451
